Sparse
SECTION Graph
Nodes 21
Edges 27
E 1 2 1
E 2 3 1
E 3 4 1
E 4 5 1
E 5 6 1
E 6 7 1
E 7 1 1
E 1 8 2
E 1 9 2
E 9 8 2
E 7 10 2
E 7 11 2
E 10 11 2
E 6 12 2
E 6 13 2
E 12 13 2
E 5 14 2
E 5 15 2
E 14 15 2
E 4 16 2
E 4 17 2
E 13 18 2
E 13 19 2
E 19 18 2
E 2 20 2
E 2 21 2
E 19 20 2
END

SECTION Terminals
Terminals 3
T 1
T 4
T 6
END

EOF